4 100 2608
8 4 11 10 9 13 5 6 13 8
1 4 2 2
6
2 7 6 6
2 5
3 9
0 40.0 50.0 0.0 0.0 0 240
2 25.0 85.0 10.0 20.0 0 191 38 0 0 1 1 0 0 0 0 0 0
3 22.0 75.0 10.0 30.0 0 199 96 0 0 0 0 1 1 0 0 1 0
4 22.0 85.0 10.0 10.0 0 190 31 0 0 0 0 0 0 0 0 1 0
5 20.0 80.0 10.0 40.0 141 171 13 1 1 0 1 0 0 0 0 0 0
6 20.0 85.0 10.0 20.0 0 189 75 0 0 0 0 0 1 1 0 0 0
7 18.0 75.0 10.0 20.0 95 125 78 0 0 0 1 0 0 0 0 0 1
8 15.0 75.0 10.0 20.0 0 194 79 0 0 0 1 0 0 0 0 0 0
9 15.0 80.0 10.0 10.0 91 121 50 1 0 0 0 0 0 0 0 0 0
10 10.0 35.0 10.0 20.0 91 121 99 0 0 0 1 0 0 0 0 0 1
11 10.0 40.0 10.0 30.0 119 149 40 0 0 0 0 0 1 0 0 0 0
12 8.0 40.0 10.0 40.0 59 89 6 0 0 1 1 0 0 0 1 0 0
13 8.0 45.0 10.0 20.0 0 197 94 0 0 0 0 1 1 0 0 1 0
14 5.0 35.0 10.0 10.0 142 172 26 1 1 0 0 1 1 0 0 0 0
15 5.0 45.0 10.0 10.0 0 194 54 1 0 0 0 0 0 1 0 0 0
16 2.0 40.0 10.0 20.0 58 88 32 0 0 0 0 0 0 0 0 1 1
17 0.0 40.0 10.0 20.0 0 188 45 0 1 0 0 0 1 0 0 0 0
18 0.0 45.0 10.0 20.0 149 179 2 1 1 1 0 0 1 0 0 0 1
19 44.0 5.0 10.0 20.0 0 184 59 0 0 1 1 0 0 0 1 0 0
20 42.0 10.0 10.0 40.0 0 189 60 0 1 0 0 0 0 0 0 0 0
21 42.0 15.0 10.0 10.0 0 194 3 0 0 0 0 0 1 0 0 0 0
22 40.0 5.0 10.0 10.0 0 185 59 0 0 0 0 0 0 1 0 1 1
23 40.0 15.0 10.0 40.0 92 122 96 0 0 0 0 1 0 0 0 0 0
24 38.0 5.0 10.0 30.0 65 95 46 0 0 0 0 1 0 0 0 0 0
25 38.0 15.0 10.0 10.0 0 194 87 0 0 0 0 0 0 1 0 1 0
26 35.0 5.0 10.0 20.0 154 184 61 0 0 0 0 1 0 0 0 0 1
27 95.0 30.0 10.0 30.0 0 171 82 0 1 0 0 0 0 1 0 0 1
28 95.0 35.0 10.0 20.0 62 92 44 0 1 0 1 0 1 1 0 0 0
29 92.0 30.0 10.0 10.0 0 174 15 0 1 1 1 0 0 0 0 0 1
30 90.0 35.0 10.0 10.0 0 177 52 0 0 0 0 1 0 0 1 0 0
31 88.0 30.0 10.0 10.0 74 104 75 1 1 0 0 0 0 0 0 0 0
32 88.0 35.0 10.0 20.0 0 179 99 1 0 1 0 0 1 0 0 0 0
33 87.0 30.0 10.0 10.0 0 178 74 1 0 1 0 0 0 0 0 1 0
34 85.0 25.0 10.0 10.0 51 81 21 0 0 0 0 0 1 0 0 0 0
35 85.0 35.0 10.0 30.0 0 182 53 0 0 0 1 0 0 0 0 0 0
36 67.0 85.0 10.0 20.0 139 169 99 0 0 1 0 0 0 0 0 0 0
37 65.0 85.0 10.0 40.0 43 73 81 0 0 1 1 0 1 0 0 0 0
38 65.0 82.0 10.0 10.0 0 189 21 0 1 1 0 0 0 0 0 1 0
39 62.0 80.0 10.0 30.0 75 105 83 0 0 0 0 0 1 0 0 0 0
40 60.0 80.0 10.0 10.0 37 67 97 0 0 0 0 0 1 0 0 1 1
41 60.0 85.0 10.0 30.0 85 115 23 0 0 0 0 0 0 0 1 1 0
42 58.0 75.0 10.0 20.0 92 122 99 0 0 0 0 0 1 0 0 0 0
43 55.0 80.0 10.0 10.0 33 63 5 0 0 1 0 0 0 0 0 1 0
44 55.0 85.0 10.0 20.0 0 191 68 1 1 0 0 0 1 0 0 0 0
45 55.0 82.0 10.0 10.0 64 94 39 0 0 1 0 1 0 1 0 0 0
46 20.0 82.0 10.0 10.0 37 67 83 0 0 0 1 0 0 0 0 1 0
47 18.0 80.0 10.0 10.0 0 192 23 0 0 0 0 0 0 1 0 0 0
48 2.0 45.0 10.0 10.0 0 191 87 0 0 0 0 1 0 0 0 1 1
49 42.0 5.0 10.0 10.0 0 184 24 0 0 0 0 0 1 0 0 0 0
50 42.0 12.0 10.0 10.0 104 134 50 1 0 0 0 1 0 0 0 0 0
51 72.0 35.0 10.0 30.0 0 194 49 0 0 0 0 0 1 0 1 0 0
52 55.0 20.0 10.0 19.0 0 196 68 0 1 1 0 0 1 0 0 0 0
53 25.0 30.0 10.0 3.0 0 205 29 0 0 0 0 0 1 0 0 0 0
54 20.0 50.0 10.0 5.0 91 121 98 0 0 0 1 0 1 1 1 0 0
55 55.0 60.0 10.0 16.0 0 211 22 0 0 0 0 1 0 0 0 1 1
56 30.0 60.0 10.0 16.0 140 170 79 0 1 1 1 0 1 1 0 0 0
57 50.0 35.0 10.0 19.0 130 160 51 0 0 0 0 0 1 0 0 0 0
58 30.0 25.0 10.0 23.0 0 203 62 0 0 0 1 0 0 0 0 0 1
59 15.0 10.0 10.0 20.0 152 182 39 0 0 0 0 0 1 0 0 0 0
60 10.0 20.0 10.0 19.0 0 187 95 1 0 0 0 0 0 0 0 0 1
61 15.0 60.0 10.0 17.0 0 203 52 0 0 0 0 0 0 0 0 1 0
62 45.0 65.0 10.0 9.0 0 214 24 1 0 0 0 0 0 0 0 1 0
63 65.0 35.0 10.0 3.0 52 82 32 0 0 0 1 0 0 0 0 0 1
64 65.0 20.0 10.0 6.0 0 190 42 0 0 0 1 0 0 0 0 0 0
65 45.0 30.0 10.0 17.0 53 83 9 0 0 0 0 0 0 0 0 1 0
66 35.0 40.0 10.0 16.0 11 41 63 0 0 1 0 1 0 0 0 1 0
67 41.0 37.0 10.0 16.0 133 163 10 0 1 0 0 0 1 0 0 0 0
68 64.0 42.0 10.0 9.0 70 100 85 0 0 0 0 0 1 0 0 0 0
69 40.0 60.0 10.0 21.0 144 174 97 0 0 1 1 0 1 0 0 0 0
70 31.0 52.0 10.0 27.0 41 71 99 0 0 0 1 0 0 0 0 0 0
71 35.0 69.0 10.0 23.0 180 210 92 0 0 0 0 0 1 0 0 1 0
72 65.0 55.0 10.0 14.0 0 204 82 0 0 0 0 1 1 1 1 0 1
73 63.0 65.0 10.0 8.0 0 202 93 0 0 0 1 0 0 0 0 0 0
74 2.0 60.0 10.0 5.0 0 190 67 0 0 0 0 1 0 0 0 1 1
75 20.0 20.0 10.0 8.0 141 171 4 0 0 0 0 0 0 1 1 0 0
76 5.0 5.0 10.0 16.0 0 172 29 0 0 1 1 0 1 1 1 1 0
77 60.0 12.0 10.0 31.0 75 105 21 1 0 0 1 0 0 0 0 1 0
78 23.0 3.0 10.0 7.0 150 180 18 0 0 1 0 0 0 0 0 0 0
79 8.0 56.0 10.0 27.0 90 120 52 0 0 0 0 0 0 0 1 0 1
80 6.0 68.0 10.0 30.0 89 119 50 1 0 0 0 1 1 0 0 1 0
81 47.0 47.0 10.0 13.0 192 222 53 1 0 1 0 0 0 0 0 0 1
82 49.0 58.0 10.0 10.0 0 217 99 0 0 0 0 0 1 0 0 0 0
83 27.0 43.0 10.0 9.0 0 215 35 0 0 0 0 0 1 0 0 0 0
84 37.0 31.0 10.0 14.0 0 210 97 1 0 1 0 1 1 0 1 0 0
85 57.0 29.0 10.0 18.0 96 126 56 1 0 0 0 0 1 0 0 0 1
86 63.0 23.0 10.0 2.0 0 194 8 1 0 1 0 0 0 0 0 0 1
87 21.0 24.0 10.0 28.0 0 197 22 0 0 1 0 0 0 1 0 0 0
88 12.0 24.0 10.0 13.0 90 120 46 1 0 1 0 0 1 0 0 0 0
89 24.0 58.0 10.0 19.0 67 97 90 0 0 1 0 0 0 1 1 0 0
90 67.0 5.0 10.0 25.0 0 177 75 1 0 1 0 0 1 0 0 0 0
91 37.0 47.0 10.0 6.0 0 225 33 1 0 0 0 1 0 0 1 1 0
92 49.0 42.0 10.0 13.0 0 217 87 0 0 0 0 0 1 0 0 1 0
93 53.0 43.0 10.0 14.0 14 44 39 0 0 1 0 0 0 0 0 0 1
94 61.0 52.0 10.0 3.0 178 208 86 1 1 0 0 0 0 0 0 1 0
95 57.0 48.0 10.0 23.0 0 212 19 1 0 1 0 0 1 1 0 0 1
96 56.0 37.0 10.0 6.0 0 209 80 0 0 0 0 0 1 0 0 0 0
97 55.0 54.0 10.0 26.0 0 214 82 0 0 0 0 0 0 1 0 0 0
98 4.0 18.0 10.0 35.0 0 181 80 0 0 0 0 0 1 0 0 0 0
99 26.0 52.0 10.0 9.0 0 215 77 0 0 0 0 0 1 0 0 0 0
100 26.0 35.0 10.0 15.0 77 107 33 0 1 0 0 0 0 0 0 1 0
101 31.0 67.0 10.0 3.0 180 210 76 0 0 1 0 0 0 0 0 0 1